HUN,8,6,402
2,30,1,29,5,12,0,25,4,12,3,14
4,21,3,18,2,20,5,18,1,17,0,26
4,14,0,13,3,19,1,11,5,4,2,7
2,2,3,12,4,11,0,26,5,27,1,12
5,16,1,25,3,30,2,24,0,5,4,24
5,14,4,13,3,25,1,18,0,7,2,10
2,10,4,30,1,10,0,10,3,14,5,9
3,17,1,3,4,21,5,12,2,20,0,28
